NAME: random-19-9564
TYPE: TSP
COMMENT: size=19 seed=9564
DIMENSION: 40
EDGE_WEIGHT_TYPE: EUC_2D
NODE_COORD_SECTION
+0 148 510
-0 148 510
+1 55 590
-1 313 868
+2 660 343
-2 611 411
+3 779 178
-3 51 990
+4 982 925
-4 858 735
+5 68 820
-5 972 542
+6 316 979
-6 123 454
+7 458 158
-7 926 881
+8 798 497
-8 607 79
+9 806 638
-9 290 426
+10 174 149
-10 235 869
+11 83 515
-11 712 57
+12 40 417
-12 54 149
+13 34 453
-13 660 336
+14 445 49
-14 255 679
+15 364 849
-15 397 539
+16 672 664
-16 413 163
+17 184 77
-17 236 853
+18 590 199
-18 158 769
+19 179 391
-19 599 514
PRECEDENCE_SECTION
+0 -0
+1 -1
+2 -2
+3 -3
+4 -4
+5 -5
+6 -6
+7 -7
+8 -8
+9 -9
+10 -10
+11 -11
+12 -12
+13 -13
+14 -14
+15 -15
+16 -16
+17 -17
+18 -18
+19 -19
EOF
